p edge 143 926
e 1 2
e 1 3
e 2 3
e 2 4
e 2 5
e 2 6
e 2 7
e 2 8
e 2 9
e 2 10
e 2 26
e 2 27
e 2 45
e 2 46
e 2 47
e 2 48
e 2 49
e 2 50
e 2 51
e 2 52
e 2 53
e 2 54
e 2 55
e 2 56
e 2 134
e 2 137
e 2 143
e 3 4
e 3 45
e 3 46
e 3 47
e 3 137
e 4 45
e 4 46
e 4 47
e 4 137
e 5 6
e 5 7
e 5 8
e 5 53
e 5 54
e 6 7
e 6 8
e 6 9
e 6 26
e 6 53
e 6 54
e 6 55
e 6 56
e 6 143
e 7 8
e 8 53
e 8 54
e 9 55
e 10 55
e 11 12
e 11 18
e 11 28
e 11 30
e 11 31
e 11 32
e 11 33
e 11 34
e 11 35
e 11 36
e 11 37
e 11 38
e 11 39
e 11 40
e 11 41
e 11 42
e 11 72
e 11 73
e 11 74
e 11 75
e 11 76
e 11 77
e 11 78
e 11 79
e 11 80
e 11 81
e 11 82
e 11 87
e 11 89
e 11 90
e 11 91
e 11 92
e 11 97
e 11 99
e 11 100
e 11 101
e 11 102
e 11 103
e 11 104
e 11 105
e 11 106
e 11 107
e 11 108
e 11 116
e 11 118
e 11 119
e 11 120
e 11 140
e 11 141
e 11 142
e 12 13
e 12 14
e 12 15
e 12 16
e 12 17
e 12 18
e 12 19
e 12 20
e 12 21
e 12 28
e 12 30
e 12 31
e 12 32
e 12 33
e 12 34
e 12 35
e 12 36
e 12 37
e 12 38
e 12 39
e 12 40
e 12 41
e 12 42
e 12 55
e 12 57
e 12 58
e 12 59
e 12 60
e 12 61
e 12 62
e 12 63
e 12 64
e 12 65
e 12 66
e 12 67
e 12 68
e 12 69
e 12 70
e 12 71
e 12 72
e 12 73
e 12 74
e 12 75
e 12 76
e 12 77
e 12 78
e 12 79
e 12 80
e 12 81
e 12 82
e 12 87
e 12 89
e 12 90
e 12 91
e 12 92
e 12 97
e 12 99
e 12 100
e 12 101
e 12 102
e 12 103
e 12 104
e 12 105
e 12 106
e 12 107
e 12 108
e 12 116
e 12 118
e 12 119
e 12 120
e 12 121
e 12 122
e 12 138
e 12 139
e 12 140
e 12 141
e 12 142
e 13 57
e 13 58
e 13 59
e 14 15
e 14 16
e 14 60
e 14 63
e 14 64
e 15 16
e 15 60
e 15 63
e 15 64
e 16 60
e 16 63
e 16 64
e 16 65
e 16 66
e 17 67
e 17 68
e 17 69
e 18 28
e 18 29
e 18 30
e 18 31
e 18 32
e 18 33
e 18 34
e 18 35
e 18 36
e 18 37
e 18 38
e 18 39
e 18 40
e 18 41
e 18 42
e 18 72
e 18 73
e 18 74
e 18 75
e 18 76
e 18 77
e 18 78
e 18 79
e 18 80
e 18 81
e 18 82
e 18 87
e 18 89
e 18 90
e 18 91
e 18 92
e 18 97
e 18 99
e 18 100
e 18 101
e 18 102
e 18 103
e 18 104
e 18 105
e 18 106
e 18 107
e 18 108
e 18 116
e 18 118
e 18 119
e 18 120
e 18 140
e 18 141
e 18 142
e 18 143
e 19 20
e 19 122
e 19 138
e 20 138
e 21 139
e 23 24
e 23 25
e 23 123
e 23 124
e 23 125
e 23 126
e 24 124
e 24 125
e 24 126
e 25 127
e 25 128
e 25 129
e 26 143
e 27 143
e 28 72
e 28 73
e 28 74
e 28 75
e 28 81
e 28 82
e 28 91
e 28 92
e 28 101
e 28 104
e 28 105
e 28 106
e 28 107
e 28 108
e 28 120
e 29 143
e 30 72
e 30 73
e 30 74
e 30 75
e 30 81
e 30 82
e 30 91
e 30 92
e 30 101
e 30 104
e 30 105
e 30 106
e 30 107
e 30 108
e 30 120
e 30 140
e 31 72
e 31 73
e 31 74
e 31 75
e 31 81
e 31 82
e 31 87
e 31 91
e 31 92
e 31 101
e 31 104
e 31 105
e 31 106
e 31 107
e 31 108
e 31 120
e 32 33
e 32 72
e 32 73
e 32 74
e 32 75
e 32 81
e 32 82
e 32 89
e 32 91
e 32 92
e 32 101
e 32 104
e 32 105
e 32 106
e 32 107
e 32 108
e 32 120
e 33 72
e 33 73
e 33 74
e 33 75
e 33 81
e 33 82
e 33 89
e 33 91
e 33 92
e 33 101
e 33 104
e 33 105
e 33 106
e 33 107
e 33 108
e 33 120
e 34 72
e 34 73
e 34 74
e 34 75
e 34 81
e 34 82
e 34 91
e 34 92
e 34 101
e 34 104
e 34 105
e 34 106
e 34 107
e 34 108
e 34 120
e 35 72
e 35 73
e 35 74
e 35 75
e 35 81
e 35 82
e 35 91
e 35 92
e 35 101
e 35 104
e 35 105
e 35 106
e 35 107
e 35 108
e 35 120
e 35 141
e 36 72
e 36 73
e 36 74
e 36 75
e 36 81
e 36 82
e 36 91
e 36 92
e 36 97
e 36 101
e 36 104
e 36 105
e 36 106
e 36 107
e 36 108
e 36 120
e 37 38
e 37 72
e 37 73
e 37 74
e 37 75
e 37 81
e 37 82
e 37 91
e 37 92
e 37 99
e 37 101
e 37 104
e 37 105
e 37 106
e 37 107
e 37 108
e 37 120
e 38 72
e 38 73
e 38 74
e 38 75
e 38 81
e 38 82
e 38 91
e 38 92
e 38 99
e 38 101
e 38 104
e 38 105
e 38 106
e 38 107
e 38 108
e 38 120
e 39 72
e 39 73
e 39 74
e 39 75
e 39 81
e 39 82
e 39 91
e 39 92
e 39 101
e 39 104
e 39 105
e 39 106
e 39 107
e 39 108
e 39 120
e 39 142
e 40 72
e 40 73
e 40 74
e 40 75
e 40 81
e 40 82
e 40 91
e 40 92
e 40 101
e 40 104
e 40 105
e 40 106
e 40 107
e 40 108
e 40 116
e 40 120
e 41 42
e 41 72
e 41 73
e 41 74
e 41 75
e 41 81
e 41 82
e 41 91
e 41 92
e 41 101
e 41 104
e 41 105
e 41 106
e 41 107
e 41 108
e 41 118
e 41 120
e 42 72
e 42 73
e 42 74
e 42 75
e 42 81
e 42 82
e 42 91
e 42 92
e 42 101
e 42 104
e 42 105
e 42 106
e 42 107
e 42 108
e 42 118
e 42 120
e 45 46
e 47 137
e 49 50
e 51 52
e 55 56
e 57 58
e 57 59
e 58 59
e 60 61
e 60 62
e 60 63
e 60 64
e 60 65
e 60 66
e 61 62
e 67 68
e 67 69
e 68 69
e 72 73
e 72 74
e 72 75
e 72 76
e 72 77
e 72 78
e 72 79
e 72 80
e 72 81
e 72 82
e 72 87
e 72 89
e 72 90
e 72 91
e 72 92
e 72 97
e 72 99
e 72 100
e 72 101
e 72 102
e 72 103
e 72 104
e 72 105
e 72 106
e 72 107
e 72 108
e 72 116
e 72 118
e 72 119
e 72 120
e 72 140
e 72 141
e 72 142
e 73 74
e 73 75
e 73 76
e 73 77
e 73 78
e 73 79
e 73 80
e 73 81
e 73 82
e 73 87
e 73 89
e 73 90
e 73 91
e 73 92
e 73 97
e 73 99
e 73 100
e 73 101
e 73 102
e 73 103
e 73 104
e 73 105
e 73 106
e 73 107
e 73 108
e 73 116
e 73 118
e 73 119
e 73 120
e 73 140
e 73 141
e 73 142
e 74 75
e 74 76
e 74 77
e 74 78
e 74 79
e 74 80
e 74 81
e 74 82
e 74 87
e 74 89
e 74 90
e 74 91
e 74 92
e 74 97
e 74 99
e 74 100
e 74 101
e 74 102
e 74 103
e 74 104
e 74 105
e 74 106
e 74 107
e 74 108
e 74 116
e 74 118
e 74 119
e 74 120
e 74 140
e 74 141
e 74 142
e 75 76
e 75 77
e 75 78
e 75 79
e 75 80
e 75 81
e 75 82
e 75 87
e 75 89
e 75 90
e 75 91
e 75 92
e 75 97
e 75 99
e 75 100
e 75 101
e 75 102
e 75 103
e 75 104
e 75 105
e 75 106
e 75 107
e 75 108
e 75 116
e 75 118
e 75 119
e 75 120
e 75 140
e 75 141
e 75 142
e 76 81
e 76 82
e 76 91
e 76 92
e 76 101
e 76 104
e 76 105
e 76 106
e 76 107
e 76 108
e 76 120
e 77 81
e 77 82
e 77 91
e 77 92
e 77 101
e 77 104
e 77 105
e 77 106
e 77 107
e 77 108
e 77 120
e 78 81
e 78 82
e 78 91
e 78 92
e 78 101
e 78 104
e 78 105
e 78 106
e 78 107
e 78 108
e 78 120
e 79 81
e 79 82
e 79 91
e 79 92
e 79 101
e 79 104
e 79 105
e 79 106
e 79 107
e 79 108
e 79 120
e 80 81
e 80 82
e 80 91
e 80 92
e 80 101
e 80 104
e 80 105
e 80 106
e 80 107
e 80 108
e 80 120
e 81 82
e 81 87
e 81 89
e 81 90
e 81 91
e 81 92
e 81 97
e 81 99
e 81 100
e 81 101
e 81 102
e 81 103
e 81 104
e 81 105
e 81 106
e 81 107
e 81 108
e 81 116
e 81 118
e 81 119
e 81 120
e 81 140
e 81 141
e 81 142
e 82 87
e 82 89
e 82 90
e 82 91
e 82 92
e 82 97
e 82 99
e 82 100
e 82 101
e 82 102
e 82 103
e 82 104
e 82 105
e 82 106
e 82 107
e 82 108
e 82 116
e 82 118
e 82 119
e 82 120
e 82 140
e 82 141
e 82 142
e 83 143
e 84 143
e 85 143
e 87 91
e 87 92
e 87 101
e 87 104
e 87 105
e 87 106
e 87 107
e 87 108
e 87 120
e 89 91
e 89 92
e 89 101
e 89 104
e 89 105
e 89 106
e 89 107
e 89 108
e 89 120
e 90 91
e 90 92
e 90 101
e 90 104
e 90 105
e 90 106
e 90 107
e 90 108
e 90 120
e 91 92
e 91 97
e 91 99
e 91 100
e 91 101
e 91 102
e 91 103
e 91 104
e 91 105
e 91 106
e 91 107
e 91 108
e 91 116
e 91 118
e 91 119
e 91 120
e 91 140
e 91 141
e 91 142
e 92 97
e 92 99
e 92 100
e 92 101
e 92 102
e 92 103
e 92 104
e 92 105
e 92 106
e 92 107
e 92 108
e 92 116
e 92 118
e 92 119
e 92 120
e 92 140
e 92 141
e 92 142
e 93 143
e 94 143
e 95 143
e 97 101
e 97 104
e 97 105
e 97 106
e 97 107
e 97 108
e 97 120
e 99 101
e 99 104
e 99 105
e 99 106
e 99 107
e 99 108
e 99 120
e 100 101
e 100 102
e 100 103
e 100 104
e 100 105
e 100 106
e 100 107
e 100 108
e 100 120
e 101 102
e 101 103
e 101 104
e 101 105
e 101 106
e 101 107
e 101 108
e 101 116
e 101 118
e 101 119
e 101 120
e 101 140
e 101 141
e 101 142
e 102 103
e 102 104
e 102 105
e 102 106
e 102 107
e 102 108
e 102 120
e 103 104
e 103 105
e 103 106
e 103 107
e 103 108
e 103 120
e 104 105
e 104 106
e 104 107
e 104 108
e 104 116
e 104 118
e 104 119
e 104 120
e 104 140
e 104 141
e 104 142
e 105 106
e 105 107
e 105 108
e 105 116
e 105 118
e 105 119
e 105 120
e 105 140
e 105 141
e 105 142
e 106 107
e 106 108
e 106 116
e 106 118
e 106 119
e 106 120
e 106 140
e 106 141
e 106 142
e 107 108
e 107 116
e 107 118
e 107 119
e 107 120
e 107 140
e 107 141
e 107 142
e 108 116
e 108 118
e 108 119
e 108 120
e 108 140
e 108 141
e 108 142
e 109 143
e 110 143
e 111 143
e 112 143
e 113 143
e 114 143
e 116 120
e 118 120
e 119 120
e 120 140
e 120 141
e 120 142
e 122 138
e 131 143
e 132 143
e 133 143
e 135 143
e 136 143
